set N := A B C D E F;
set A := (A,B) (A,C) (B,C) (B,D) (B,E) (B,F) (C,F) (D,F) (E,D) (E,C) (F,E);

param W := 50;

param : c 		w	:=
	 A B	7	32
	 A C 	8	14
	 B C   -1	11
	 B D  	4	10
	 B E 	1	2
	 B F 	5	14
	 C F 	3	48
	 D F 	0	33
	 E D 	0	14
	 E C   -2	9
	 F E	3	18
;

param b default 0 :=
	A  -1
	F 	1
;

